
-80.8
-54.72
-35.26
-26.38
-19.36
-17.34
-17.28
-17.08
-16.98
-16.92
-16.82
-16.72
-16.72
-16.64
-16.54
-16.46
-16.46
-16.36
-16.32
-16.22
-16.22
-16.22
-16.22
-16.22
-16.22
-16.22
-16.22
-16.22
-16.22
-16.22
-16.22
-16.22
-16.22
-16.22
-16.2
-16.2
-16.2
-16.2
-16.2